NAME: rue_20_10
TYPE: TSP
DIMENSION: 20
EDGE_WEIGHT_TYPE: EUC_2D
NODE_COORD_SECTION
1 12 35
2 5 4
3 29 36
4 7 18
5 27 23
6 40 30
7 21 32
8 12 40
9 35 29
10 9 3
11 38 26
12 9 18
13 25 36
14 24 36
15 23 1
16 2 25
17 39 19
18 30 28
19 10 35
20 33 35

